
Gurobi 5.6.3 (win64) logging started 08/04/14 21:50:57

Optimize a model with 480 rows, 400 columns and 1468 nonzeros
Presolve removed 85 rows and 82 columns
Presolve time: 0.03s
Presolved: 395 rows, 318 columns, 1183 nonzeros

Iteration    Objective       Primal Inf.    Dual Inf.      Time
       0   -3.2300570e+00   4.209398e+01   0.000000e+00      0s
     341    6.5707570e+01   0.000000e+00   0.000000e+00      0s

Solved in 341 iterations and 0.05 seconds
Optimal objective  6.570757028e+01
